NAME : rand20
COMMENT : 20-random-city problem 
TYPE : TSP
DIMENSION : 20
EDGE_WEIGHT_TYPE : EUC_2D
NODE_COORD_SECTION
1 475 110
2 29 929
3 755 897
4 698 979
5 871 317
6 535 184
7 548 73
8 594 380
9 233 845
10 881 654
11 200 540
12 9 800
13 526 456
14 765 30
15 992 449
16 659 193
17 938 370
18 233 966
19 692 112
20 680 873
EOF
